% demand
num_movements = 24;
loading_factor = [1000, 2000, 1000, 900, 1650, 1200, 2000, 1100, 1550, 1150, 1550, 1100, 1700, 1900, 1650, 1000, 1650, 1550, 950, 1950, 1750, 1200, 1150, 1200];
pickup_time = [0, 0, 0, 0, 0, 2, 2, 2, 2, 2, 4, 4, 4, 4, 7, 7, 7, 7, 8, 8, 8, 8, 8, 9];
delivery_time = [1, 1, 1, 1, 1, 3, 3, 3, 3, 3, 7, 7, 7, 7, 8, 8, 8, 8, 10, 10, 10, 9, 10, 10];

% transporter definition
total_capacity = 7000;
num_decks = 3;
capacity = [3000, 1000, 3000];

% ways out of decks
num_ways_out = 1;
paths_out = array3d(decks, ways_out, decks, [
% ways out of deck d1
2, 3, 0, 

% ways out of deck d2
3, 0, 0, 

% ways out of deck d3
0, 0, 0,	

]);

